GLPSOL: GLPK LP/MIP Solver, v4.65
Parameter(s) specified in the command line:
 --cpxlp /tmp/5363195c3acf4fb385100eb261882ac3-pulp.lp -o /tmp/5363195c3acf4fb385100eb261882ac3-pulp.sol
 --tmlim 15
Reading problem data from '/tmp/5363195c3acf4fb385100eb261882ac3-pulp.lp'...
27205 rows, 8000 columns, 73250 non-zeros
39286 lines were read
GLPK Simplex Optimizer, v4.65
27205 rows, 8000 columns, 73250 non-zeros
Preprocessing...
~     0: obj =   1.600000000e+01  infeas =  0.000e+00
OPTIMAL SOLUTION FOUND BY LP PREPROCESSOR
Time used:   0.0 secs
Memory used: 18.1 Mb (18987028 bytes)
Writing basic solution to '/tmp/5363195c3acf4fb385100eb261882ac3-pulp.sol'...
Welcome to the CBC MILP Solver 
Version: 2.10.10 
Build Date: Apr 19 2023 

command line - cbc /tmp/e8377c41d72d4d668961ac15b5cbaeec-pulp.mps max sec 15 timeMode elapsed branch printingOptions all solution /tmp/e8377c41d72d4d668961ac15b5cbaeec-pulp.sol (default strategy 1)
At line 2 NAME          MODEL
At line 3 ROWS
At line 27210 COLUMNS
At line 117487 RHS
At line 144693 BOUNDS
At line 152694 ENDATA
Problem MODEL has 27205 rows, 8000 columns and 73250 elements
Coin0008I MODEL read with 0 errors
seconds was changed from 1e+100 to 15
Option for timeMode changed from cpu to elapsed
Continuous objective value is 16 - 0.01 seconds
Cgl0002I 3928 variables fixed
Cgl0004I processed model has 0 rows, 0 columns (0 integer (0 of which binary)) and 0 elements
Cbc3007W No integer variables - nothing to do
Cuts at root node changed objective from 16 to 1.79769e+308
Probing was tried 0 times and created 0 cuts of which 0 were active after adding rounds of cuts (0.000 seconds)
Gomory was tried 0 times and created 0 cuts of which 0 were active after adding rounds of cuts (0.000 seconds)
Knapsack was tried 0 times and created 0 cuts of which 0 were active after adding rounds of cuts (0.000 seconds)
Clique was tried 0 times and created 0 cuts of which 0 were active after adding rounds of cuts (0.000 seconds)
MixedIntegerRounding2 was tried 0 times and created 0 cuts of which 0 were active after adding rounds of cuts (0.000 seconds)
FlowCover was tried 0 times and created 0 cuts of which 0 were active after adding rounds of cuts (0.000 seconds)
TwoMirCuts was tried 0 times and created 0 cuts of which 0 were active after adding rounds of cuts (0.000 seconds)
ZeroHalf was tried 0 times and created 0 cuts of which 0 were active after adding rounds of cuts (0.000 seconds)

Result - Optimal solution found

Objective value:                16.00000000
Enumerated nodes:               0
Total iterations:               0
Time (CPU seconds):             0.10
Time (Wallclock seconds):       0.11

Option for printingOptions changed from normal to all
Total time (CPU seconds):       0.42   (Wallclock seconds):       0.23

